0 5 73 91 88 90 15 89 45 3 13 49 37 
5 0 90 83 40 14 2 20 50 68 57 68 3 
73 90 0 14 52 86 71 12 54 20 70 92 21 
91 83 14 0 24 99 58 61 97 17 99 10 91 
88 40 52 24 0 31 82 58 64 9 51 70 53 
90 14 86 99 31 0 87 30 65 69 10 91 91 
15 2 71 58 82 87 0 54 79 8 3 54 9 
89 20 12 61 58 30 54 0 6 25 28 47 70 
45 50 54 97 64 65 79 6 0 75 63 59 4 
3 68 20 17 9 69 8 25 75 0 14 12 14 
13 57 70 99 51 10 3 28 63 14 0 15 26 
49 68 92 10 70 91 54 47 59 12 15 0 49 
37 3 21 91 53 91 9 70 4 14 26 49 0 
